
Gurobi 12.0.2 (win64) logging started Fri Jun  6 10:10:49 2025

Set parameter LogFile to value "C:\Ioana\_uni\honours\slp\algorithm\Main_files\results\others\prox_tubules_new\Task_025_Sample004_irr_gurobi.log"
Gurobi Optimizer version 12.0.2 build v12.0.2rc0 (win64 - Windows 11.0 (26100.2))

CPU model: Intel(R) Core(TM) Ultra 5 125H, instruction set [SSE2|AVX|AVX2]
Thread count: 14 physical cores, 18 logical processors, using up to 18 threads

Non-default parameters:
TimeLimit  2200

Optimize a model with 47658 rows, 34805 columns and 147852 nonzeros
Model fingerprint: 0xdd8cdc96
Variable types: 17411 continuous, 17394 integer (17394 binary)
Coefficient statistics:
  Matrix range     [1e-04, 8e+04]
  Objective range  [1e-04, 3e+00]
  Bounds range     [1e+00, 1e+03]
  RHS range        [1e+00, 1e+00]
Presolve removed 31250 rows and 21846 columns
Presolve time: 0.32s
Presolved: 16408 rows, 12959 columns, 54593 nonzeros
Variable types: 6413 continuous, 6546 integer (6546 binary)
Found heuristic solution: objective 19.9212604

Root relaxation: objective 2.800466e-03, 143 iterations, 0.03 seconds (0.01 work units)

    Nodes    |    Current Node    |     Objective Bounds      |     Work
 Expl Unexpl |  Obj  Depth IntInf | Incumbent    BestBd   Gap | It/Node Time

     0     0    0.00280    0    8   19.92126    0.00280   100%     -    0s
H    0     0                       1.0471321    0.00280   100%     -    0s

Cutting planes:
  Learned: 1
  Cover: 7
  Clique: 1
  MIR: 4
  Flow cover: 5
  Flow path: 4
  Relax-and-lift: 5

Explored 1 nodes (143 simplex iterations) in 0.56 seconds (0.59 work units)
Thread count was 18 (of 18 available processors)

Solution count 2: 1.04713 19.9213 

Optimal solution found (tolerance 1.00e-04)
Best objective 1.047132138439e+00, best bound 1.047132138439e+00, gap 0.0000%
